Co 111                                  
   2.63665000000000     
     1.0000000000000000    0.0000000000000000    0.0000000000000000
    -0.5000000000000000    0.8660254037844390    0.0000000000000000
     0.0000000000000000    0.0000000000000000   14.6969384566999999
   Co   Pt
     6     6
Selective dynamics
Direct
  0.0000000000000000  0.0000000000000000  0.0098193619308859   F   F   T
  0.3333333333333357  0.6666666666666643  0.0582304473492202   F   F   T
  0.6666666666666643  0.3333333333333357  0.1097765705240445   F   F   T
  0.0000000000000000  0.0000000000000000  0.1598531262767728   F   F   T
  0.3333333333333357  0.6666666666666643  0.2108486415603023   F   F   T
  0.6666666666666643  0.3333333333333357  0.2606928849393067   F   F   T
  0.0000000000000000  0.0000000000000000  0.3166263129630250   F   F   T
  0.3333333333333357  0.6666666666666643  0.3809014471162442   F   F   T
  0.6666666666666643  0.3333333333333357  0.4447093342258683   F   F   T
  0.0000000000000000  0.0000000000000000  0.5082664023808081   F   F   T
  0.3333333333333357  0.6666666666666643  0.5717615302234096   F   F   T
  0.6666666666666643  0.3333333333333357  0.6351806075101136   F   F   T
 
  0.00000000E+00  0.00000000E+00  0.00000000E+00
  0.00000000E+00  0.00000000E+00  0.00000000E+00
  0.00000000E+00  0.00000000E+00  0.00000000E+00
  0.00000000E+00  0.00000000E+00  0.00000000E+00
  0.00000000E+00  0.00000000E+00  0.00000000E+00
  0.00000000E+00  0.00000000E+00  0.00000000E+00
  0.00000000E+00  0.00000000E+00  0.00000000E+00
  0.00000000E+00  0.00000000E+00  0.00000000E+00
  0.00000000E+00  0.00000000E+00  0.00000000E+00
  0.00000000E+00  0.00000000E+00  0.00000000E+00
  0.00000000E+00  0.00000000E+00  0.00000000E+00
  0.00000000E+00  0.00000000E+00  0.00000000E+00
