Co 111                                  
   2.63665000000000     
     1.0139266742904007   -0.0000000000000000    0.0000000000000000
    -0.5069633371452004    0.8780862575101578    0.0000000000000000
     0.0000000000000001   -0.0000000000000000   14.8870830647283103
   Co   Pt
     6     6
Selective dynamics
Direct
 -0.0000000000000000 -0.0000000000000000  0.0166052076670591   F   F   T
  0.3333333333333357  0.6666666666666643  0.0638409407489957   F   F   T
  0.6666666666666643  0.3333333333333357  0.1142948348227784   F   F   T
  0.0000000000000000 -0.0000000000000000  0.1633440366578240   F   F   T
  0.3333333333333357  0.6666666666666643  0.2132665506221754   F   F   T
  0.6666666666666643  0.3333333333333357  0.2621337770192073   F   F   T
  0.0000000000000000 -0.0000000000000000  0.3167631339753944   F   F   T
  0.3333333333333357  0.6666666666666643  0.3793437537119108   F   F   T
  0.6666666666666643  0.3333333333333357  0.4415348029048298   F   F   T
  0.0000000000000000  0.0000000000000000  0.5033968125144215   F   F   T
  0.3333333333333357  0.6666666666666643  0.5651882867441257   F   F   T
  0.6666666666666643  0.3333333333333357  0.6269545296112792   F   F   T
 
  0.00000000E+00  0.00000000E+00  0.00000000E+00
  0.00000000E+00  0.00000000E+00  0.00000000E+00
  0.00000000E+00  0.00000000E+00  0.00000000E+00
  0.00000000E+00  0.00000000E+00  0.00000000E+00
  0.00000000E+00  0.00000000E+00  0.00000000E+00
  0.00000000E+00  0.00000000E+00  0.00000000E+00
  0.00000000E+00  0.00000000E+00  0.00000000E+00
  0.00000000E+00  0.00000000E+00  0.00000000E+00
  0.00000000E+00  0.00000000E+00  0.00000000E+00
  0.00000000E+00  0.00000000E+00  0.00000000E+00
  0.00000000E+00  0.00000000E+00  0.00000000E+00
  0.00000000E+00  0.00000000E+00  0.00000000E+00
