Co 111                                  
   2.63665000000000     
     1.0222476047943763   -0.0000000000000009    0.0000000000000000
    -0.5111238023971872    0.8852923947097251   -0.0000000000000000
     0.0000000000000002   -0.0000000000000025   16.2563804683670021
   Pt   Co
     6     4
Selective dynamics
Direct
  0.0000000000000000  0.0000000000000000 -0.0006052805641485   F   F   T
  0.3333333333333357  0.6666666666666643  0.0555114086331705   F   F   T
  0.6666666666666643  0.3333333333333357  0.1115543756238853   F   F   T
  0.0000000000000000  0.0000000000000000  0.1676788147303621   F   F   T
  0.3333333333333357  0.6666666666666643  0.2241333561383319   F   F   T
  0.6666666666666643  0.3333333333333357  0.2809687244557971   F   F   T
  0.0000000000000000  0.0000000000000000  0.3307524360434612   F   F   T
  0.3333333333333357  0.6666666666666643  0.3751111521109292   F   F   T
  0.6666666666666643  0.3333333333333357  0.4212545181672199   F   F   T
  0.0000000000000000  0.0000000000000000  0.4642177225096640   F   F   T
 
  0.00000000E+00  0.00000000E+00  0.00000000E+00
  0.00000000E+00  0.00000000E+00  0.00000000E+00
  0.00000000E+00  0.00000000E+00  0.00000000E+00
  0.00000000E+00  0.00000000E+00  0.00000000E+00
  0.00000000E+00  0.00000000E+00  0.00000000E+00
  0.00000000E+00  0.00000000E+00  0.00000000E+00
  0.00000000E+00  0.00000000E+00  0.00000000E+00
  0.00000000E+00  0.00000000E+00  0.00000000E+00
  0.00000000E+00  0.00000000E+00  0.00000000E+00
  0.00000000E+00  0.00000000E+00  0.00000000E+00
