Co 111                                  
   2.63665000000000     
     1.0000000000000000    0.0000000000000000    0.0000000000000000
    -0.5000000000000000    0.8660254037844390    0.0000000000000000
     0.0000000000000000    0.0000000000000000   14.6969384566999999
   Pt   Co
     6     4
Selective dynamics
Direct
  0.0000000000000000  0.0000000000000000 -0.0252080735324396   F   F   T
  0.3333333333333357  0.6666666666666643  0.0381976078598847   F   F   T
  0.6666666666666643  0.3333333333333357  0.1016767619057943   F   F   T
  0.0000000000000000  0.0000000000000000  0.1652191091230676   F   F   T
  0.3333333333333357  0.6666666666666643  0.2290038866362095   F   F   T
  0.6666666666666643  0.3333333333333357  0.2932708651057384   F   F   T
  0.0000000000000000  0.0000000000000000  0.3492709810288703   F   F   T
  0.3333333333333357  0.6666666666666643  0.3989175987333874   F   F   T
  0.6666666666666643  0.3333333333333357  0.4506269876347098   F   F   T
  0.0000000000000000  0.0000000000000000  0.4990242755047771   F   F   T
 
  0.00000000E+00  0.00000000E+00  0.00000000E+00
  0.00000000E+00  0.00000000E+00  0.00000000E+00
  0.00000000E+00  0.00000000E+00  0.00000000E+00
  0.00000000E+00  0.00000000E+00  0.00000000E+00
  0.00000000E+00  0.00000000E+00  0.00000000E+00
  0.00000000E+00  0.00000000E+00  0.00000000E+00
  0.00000000E+00  0.00000000E+00  0.00000000E+00
  0.00000000E+00  0.00000000E+00  0.00000000E+00
  0.00000000E+00  0.00000000E+00  0.00000000E+00
  0.00000000E+00  0.00000000E+00  0.00000000E+00
