Co 111                                  
   2.63665000000000     
     2.0287904452258858    0.0000000000000000    0.0000000000000000
    -1.0143952226129429    1.7553332529043548   -0.0013153726007251
     0.0000000000000000   -0.0100179294513709   13.2570156717076912
   Pt   Co
    26    26
Selective dynamics
Direct
  0.9999943433399978  0.9999886866799972  0.9808655668572264   T   T   T
  0.4999943433399986  0.9999886866799972  0.9808655666855521   T   T   T
  0.9999726223480241  0.4999452446960554  0.9807608710510209   T   T   T
  0.4999726223480240  0.4999452446960554  0.9807608710510209   T   T   T
  0.3332675686595273  0.1665351383190584  0.0502330611497517   T   T   T
  0.8332675689925305  0.1665351383190584  0.0502330611497517   T   T   T
  0.3332217075572510  0.6664434161144985  0.0502685919289809   T   T   T
  0.8332217078902537  0.6664434161144985  0.0502685919446768   T   T   T
  0.1664230678527953  0.3328461347055941  0.1196026178580887   T   T   T
  0.6664230678527955  0.3328461347055941  0.1196026176191190   T   T   T
  0.1663903894316321  0.8327807781962637  0.1197710800760096   T   T   T
  0.6663903894316319  0.8327807781962637  0.1197710800760096   T   T   T
  0.9998277610125560  0.9996555220251188  0.1891065046279466   T   T   T
  0.4998277610125558  0.9996555220251188  0.1891065045214433   T   T   T
  0.9997531017171646  0.4995062034343366  0.1893002546474152   T   T   T
  0.4997531017171646  0.4995062034343366  0.1893002546474152   T   T   T
  0.3340062700059112  0.1680125410118255  0.2588532709404591   T   T   T
  0.8340062700059107  0.1680125410118255  0.2588532709404591   T   T   T
  0.3337741128566742  0.6675482267133592  0.2591265410972784   T   T   T
  0.8337741128566742  0.6675482267133592  0.2591265408057853   T   T   T
  0.1690751574801684  0.3381503139603260  0.3296426695153544   T   T   T
  0.6690751574801683  0.3381503139603260  0.3296426681410156   T   T   T
  0.1675615779494951  0.8351231548989865  0.3284639689325175   T   T   T
  0.6675615779494954  0.8351231548989865  0.3284639689325175   T   T   T
  0.9995998422501988  0.9991996845004049  0.3959056166368752   T   T   T
  0.4995998422501989  0.9991996845004049  0.3959056141205236   T   T   T
  0.9997602456492473  0.4995204912984949  0.3941967347323159   T   T   T
  0.4997602456492476  0.4995204912984949  0.3941967347323159   T   T   T
  0.3428706445773693  0.1857412901547352  0.4536805018704030   T   T   T
  0.8428706445773694  0.1857412901547352  0.4536805018704030   T   T   T
  0.3232859876487388  0.6465719762974813  0.4523246903419642   T   T   T
  0.8232859876487392  0.6465719762974813  0.4523246855831540   T   T   T
  0.1664961809867362  0.3329923609734687  0.5093562659492624   T   T   T
  0.6664961809867364  0.3329923609734687  0.5093562564955055   T   T   T
  0.1642476287715262  0.8284952565430487  0.5080314913397797   T   T   T
  0.6642476287715264  0.8284952565430487  0.5080314913397797   T   T   T
  0.9981006181418948  0.9962012362837898  0.5642803855689451   T   T   T
  0.4981006181418949  0.9962012362837898  0.5642803874741162   T   T   T
  0.0015112107990971  0.5030224215981947  0.5646676889608413   T   T   T
  0.5015112107990976  0.5030224215981947  0.5646676889608413   T   T   T
  0.3330455045417968  0.1660910100835972  0.6195977505452760   T   T   T
  0.8330455045417967  0.1660910100835972  0.6195977505452760   T   T   T
  0.3335324653458524  0.6670649316917084  0.6199546813618940   T   T   T
  0.8335324653458526  0.6670649316917084  0.6199546796800252   T   T   T
  0.1663103620503154  0.3326207231006343  0.6763813596066668   T   T   T
  0.6663103620503152  0.3326207231006343  0.6763813417648890   T   T   T
  0.1672266807050841  0.8344533604101574  0.6765041129195284   T   T   T
  0.6672266807050836  0.8344533604101574  0.6765041129195284   T   T   T
  0.0003788976511966  0.0007577953023861  0.7296250206380328   T   T   T
  0.5003788976511967  0.0007577953023861  0.7296249924597127   T   T   T
  0.0003660506697412  0.5007321013394826  0.7294987331926714   T   T   T
  0.5003660506697410  0.5007321013394826  0.7294987331926714   T   T   T
 
  0.00000000E+00  0.00000000E+00  0.00000000E+00
  0.00000000E+00  0.00000000E+00  0.00000000E+00
  0.00000000E+00  0.00000000E+00  0.00000000E+00
  0.00000000E+00  0.00000000E+00  0.00000000E+00
  0.00000000E+00  0.00000000E+00  0.00000000E+00
  0.00000000E+00  0.00000000E+00  0.00000000E+00
  0.00000000E+00  0.00000000E+00  0.00000000E+00
  0.00000000E+00  0.00000000E+00  0.00000000E+00
  0.00000000E+00  0.00000000E+00  0.00000000E+00
  0.00000000E+00  0.00000000E+00  0.00000000E+00
  0.00000000E+00  0.00000000E+00  0.00000000E+00
  0.00000000E+00  0.00000000E+00  0.00000000E+00
  0.00000000E+00  0.00000000E+00  0.00000000E+00
  0.00000000E+00  0.00000000E+00  0.00000000E+00
  0.00000000E+00  0.00000000E+00  0.00000000E+00
  0.00000000E+00  0.00000000E+00  0.00000000E+00
  0.00000000E+00  0.00000000E+00  0.00000000E+00
  0.00000000E+00  0.00000000E+00  0.00000000E+00
  0.00000000E+00  0.00000000E+00  0.00000000E+00
  0.00000000E+00  0.00000000E+00  0.00000000E+00
  0.00000000E+00  0.00000000E+00  0.00000000E+00
  0.00000000E+00  0.00000000E+00  0.00000000E+00
  0.00000000E+00  0.00000000E+00  0.00000000E+00
  0.00000000E+00  0.00000000E+00  0.00000000E+00
  0.00000000E+00  0.00000000E+00  0.00000000E+00
  0.00000000E+00  0.00000000E+00  0.00000000E+00
  0.00000000E+00  0.00000000E+00  0.00000000E+00
  0.00000000E+00  0.00000000E+00  0.00000000E+00
  0.00000000E+00  0.00000000E+00  0.00000000E+00
  0.00000000E+00  0.00000000E+00  0.00000000E+00
  0.00000000E+00  0.00000000E+00  0.00000000E+00
  0.00000000E+00  0.00000000E+00  0.00000000E+00
  0.00000000E+00  0.00000000E+00  0.00000000E+00
  0.00000000E+00  0.00000000E+00  0.00000000E+00
  0.00000000E+00  0.00000000E+00  0.00000000E+00
  0.00000000E+00  0.00000000E+00  0.00000000E+00
  0.00000000E+00  0.00000000E+00  0.00000000E+00
  0.00000000E+00  0.00000000E+00  0.00000000E+00
  0.00000000E+00  0.00000000E+00  0.00000000E+00
  0.00000000E+00  0.00000000E+00  0.00000000E+00
  0.00000000E+00  0.00000000E+00  0.00000000E+00
  0.00000000E+00  0.00000000E+00  0.00000000E+00
  0.00000000E+00  0.00000000E+00  0.00000000E+00
  0.00000000E+00  0.00000000E+00  0.00000000E+00
  0.00000000E+00  0.00000000E+00  0.00000000E+00
  0.00000000E+00  0.00000000E+00  0.00000000E+00
  0.00000000E+00  0.00000000E+00  0.00000000E+00
  0.00000000E+00  0.00000000E+00  0.00000000E+00
  0.00000000E+00  0.00000000E+00  0.00000000E+00
  0.00000000E+00  0.00000000E+00  0.00000000E+00
  0.00000000E+00  0.00000000E+00  0.00000000E+00
  0.00000000E+00  0.00000000E+00  0.00000000E+00
