Co 111                                  
   2.63665000000000     
     1.0087789985339648   -0.0000000000000002    0.0000000000000000
    -0.5043894992669824    0.8736282395346436   -0.0000000000000001
     0.0000000000000013   -0.0000000000000068   21.3438371719900495
   Pt   Co
     9    12
Selective dynamics
Direct
  0.0000000000000000 -0.0000000000000000 -0.0017425553148694   F   F   T
  0.3333333300000021  0.6666666699999979  0.0415453636367733   F   F   T
  0.6666666699999979  0.3333333300000021  0.0848716539624576   F   F   T
 -0.0000000000000000 -0.0000000000000000  0.1282348471931085   F   F   T
  0.3333333300000021  0.6666666699999979  0.1716895765490531   F   F   T
  0.6666666699999979  0.3333333300000021  0.2150564808244449   F   F   T
  0.0000000000000000  0.0000000000000000  0.2585126712377874   F   F   T
  0.3333333300000021  0.6666666699999979  0.3020508175431194   F   F   T
  0.6666666699999979  0.3333333300000021  0.3460251773049908   F   F   T
  0.0000000000000000  0.0000000000000000  0.3843101376479072   F   F   T
  0.3333333300000021  0.6666666699999979  0.4185421694278393   F   F   T
  0.6666666699999979  0.3333333300000021  0.4533952548138656   F   F   T
 -0.0000000000000000 -0.0000000000000000  0.4879710989006891   F   F   T
  0.3333333300000021  0.6666666699999979  0.5226750516905370   F   F   T
  0.6666666699999979  0.3333333300000021  0.5573176046823518   F   F   T
  0.0000000000000000  0.0000000000000000  0.5919953500577565   F   F   T
  0.3333333300000021  0.6666666699999979  0.6266176166012873   F   F   T
  0.6666666699999979  0.3333333300000021  0.6613742069403238   F   F   T
 -0.0000000000000000 -0.0000000000000000  0.6958119268653907   F   F   T
  0.3333333300000021  0.6666666699999979  0.7310889426679574   F   F   T
  0.6666666699999979  0.3333333300000021  0.7642069867672104   F   F   T
 
  0.00000000E+00  0.00000000E+00  0.00000000E+00
  0.00000000E+00  0.00000000E+00  0.00000000E+00
  0.00000000E+00  0.00000000E+00  0.00000000E+00
  0.00000000E+00  0.00000000E+00  0.00000000E+00
  0.00000000E+00  0.00000000E+00  0.00000000E+00
  0.00000000E+00  0.00000000E+00  0.00000000E+00
  0.00000000E+00  0.00000000E+00  0.00000000E+00
  0.00000000E+00  0.00000000E+00  0.00000000E+00
  0.00000000E+00  0.00000000E+00  0.00000000E+00
  0.00000000E+00  0.00000000E+00  0.00000000E+00
  0.00000000E+00  0.00000000E+00  0.00000000E+00
  0.00000000E+00  0.00000000E+00  0.00000000E+00
  0.00000000E+00  0.00000000E+00  0.00000000E+00
  0.00000000E+00  0.00000000E+00  0.00000000E+00
  0.00000000E+00  0.00000000E+00  0.00000000E+00
  0.00000000E+00  0.00000000E+00  0.00000000E+00
  0.00000000E+00  0.00000000E+00  0.00000000E+00
  0.00000000E+00  0.00000000E+00  0.00000000E+00
  0.00000000E+00  0.00000000E+00  0.00000000E+00
  0.00000000E+00  0.00000000E+00  0.00000000E+00
  0.00000000E+00  0.00000000E+00  0.00000000E+00
