Co 111                                  
   2.63665000000000     
     1.0000000000000000    0.0000000000000000    0.0000000000000000
    -0.5000000000000000    0.8660254037844390    0.0000000000000000
     0.0000000000000000    0.0000000000000000   14.6969384566999999
   Pt   Co
     6     6
Selective dynamics
Direct
  0.0000000000000000  0.0000000000000000 -0.0240761456656826   F   F   T
  0.3333333333333357  0.6666666666666643  0.0393480785538252   F   F   T
  0.6666666666666643  0.3333333333333357  0.1028393653438268   F   F   T
  0.0000000000000000  0.0000000000000000  0.1664054148859107   F   F   T
  0.3333333333333357  0.6666666666666643  0.2302074976843477   F   F   T
  0.6666666666666643  0.3333333333333357  0.2944912750511070   F   F   T
  0.0000000000000000  0.0000000000000000  0.3504177483322048   F   F   T
  0.3333333333333357  0.6666666666666643  0.4002664371646037   F   F   T
  0.6666666666666643  0.3333333333333357  0.4512604022149488   F   F   T
  0.0000000000000000  0.0000000000000000  0.5013356110388851   F   F   T
  0.3333333333333357  0.6666666666666643  0.5528798800292877   F   F   T
  0.6666666666666643  0.3333333333333357  0.6012911023667367   F   F   T
 
  0.00000000E+00  0.00000000E+00  0.00000000E+00
  0.00000000E+00  0.00000000E+00  0.00000000E+00
  0.00000000E+00  0.00000000E+00  0.00000000E+00
  0.00000000E+00  0.00000000E+00  0.00000000E+00
  0.00000000E+00  0.00000000E+00  0.00000000E+00
  0.00000000E+00  0.00000000E+00  0.00000000E+00
  0.00000000E+00  0.00000000E+00  0.00000000E+00
  0.00000000E+00  0.00000000E+00  0.00000000E+00
  0.00000000E+00  0.00000000E+00  0.00000000E+00
  0.00000000E+00  0.00000000E+00  0.00000000E+00
  0.00000000E+00  0.00000000E+00  0.00000000E+00
  0.00000000E+00  0.00000000E+00  0.00000000E+00
