Co 111                                  
   2.63665000000000     
     1.0139125298305809   -0.0000000000000001    0.0000000000000000
    -0.5069562649152904    0.8780740080486353   -0.0000000000000001
     0.0000000000000012   -0.0000000000000064   16.3737690471935835
   Pt   Co
     6     6
Selective dynamics
Direct
  0.0000000000000000  0.0000000000000000 -0.0007418500597777   F   F   T
  0.3333333333333357  0.6666666666666643  0.0554275929981299   F   F   T
  0.6666666666666643  0.3333333333333357  0.1116043665643624   F   F   T
 -0.0000000000000000  0.0000000000000000  0.1678465602308412   F   F   T
  0.3333333333333357  0.6666666666666643  0.2243907238306147   F   F   T
  0.6666666666666643  0.3333333333333357  0.2812880032961272   F   F   T
  0.0000000000000000 -0.0000000000000000  0.3309633725628023   F   F   T
  0.3333333333333357  0.6666666666666643  0.3753940667627265   F   F   T
  0.6666666666666643  0.3333333333333357  0.4207826545180157   F   F   T
 -0.0000000000000000 -0.0000000000000000  0.4653830721533552   F   F   T
  0.3333333333333357  0.6666666666666643  0.5112537591255087   F   F   T
  0.6666666666666643  0.3333333333333357  0.5542231931749058   F   F   T
 
  0.00000000E+00  0.00000000E+00  0.00000000E+00
  0.00000000E+00  0.00000000E+00  0.00000000E+00
  0.00000000E+00  0.00000000E+00  0.00000000E+00
  0.00000000E+00  0.00000000E+00  0.00000000E+00
  0.00000000E+00  0.00000000E+00  0.00000000E+00
  0.00000000E+00  0.00000000E+00  0.00000000E+00
  0.00000000E+00  0.00000000E+00  0.00000000E+00
  0.00000000E+00  0.00000000E+00  0.00000000E+00
  0.00000000E+00  0.00000000E+00  0.00000000E+00
  0.00000000E+00  0.00000000E+00  0.00000000E+00
  0.00000000E+00  0.00000000E+00  0.00000000E+00
  0.00000000E+00  0.00000000E+00  0.00000000E+00
