Co 111                                  
   2.63665000000000     
     2.0316235582455882   -0.0000010463156173   -0.0000002887492530
    -1.0158126852586993    1.7594370892098090    0.0000002887492529
    -0.0000018586104236    0.0000010730692282   13.2820315608393482
   Pt   Co
    27    25
Selective dynamics
Direct
  0.9999976709342098  0.0000023290657903  0.9807199024298846   T   T   T
  0.5000045711998321  0.0000023078485691  0.9807199047384011   T   T   T
  0.9999976921514312  0.4999954288001678  0.9807199047384011   T   T   T
  0.4999999762030028  0.5000000237969972  0.9806660084593298   T   T   T
  0.3333392503992433  0.1666787105606513  0.0498696390325103   T   T   T
  0.8333332543167086  0.1666667460162943  0.0498141499655504   T   T   T
  0.3333392697894119  0.6666607302105880  0.0498696669170153   T   T   T
  0.8333212897723445  0.6666607496007571  0.0498696390325103   T   T   T
  0.1666828355057146  0.3333415902524783  0.1189572404973898   T   T   T
  0.6666584211035338  0.3333415788964664  0.1189572206203559   T   T   T
  0.1666665518643259  0.8333334484686772  0.1191351929252798   T   T   T
  0.6666584097475214  0.8333171648272885  0.1189572404973898   T   T   T
 -0.0000266409601707  1.0000266409601704  0.1881788633002266   T   T   T
  0.5000528816123511  1.0000266176658112  0.1881788626660727   T   T   T
 -0.0000266176658111  0.4999471183876489  0.1881788626660727   T   T   T
  0.4999998878618243  0.5000001121381757  0.1883156867148719   T   T   T
  0.3334606839013356  0.1669217272068310  0.2577688146243360   T   T   T
  0.8333331945526450  0.1666668054473550  0.2574188337424013   T   T   T
  0.3334607010055968  0.6665392989944030  0.2577688114199292   T   T   T
  0.8330782727931689  0.6665393160986649  0.2577688146243360   T   T   T
  0.1680593455168999  0.3340300047236980  0.3275207675535066   T   T   T
  0.6659699385274147  0.3340300614725852  0.3275208232042799   T   T   T
  0.1666665403856465  0.8333334596143535  0.3265988175982542   T   T   T
  0.6659699952763023  0.8319406544831000  0.3275207675535066   T   T   T
  1.0000871723921314 -0.0000871723921318  0.3954900032737007   T   T   T
  0.4998253623518334 -0.0000869594714307  0.3954903595200118   T   T   T
  1.0000869594714306  0.5001746376481666  0.3954903595200118   T   T   T
  0.5000000074961873  0.4999999925038129  0.3941687329769362   T   T   T
  0.3421283384787045  0.1842641535279604  0.4540365143843779   T   T   T
  0.8333354815367671  0.1666645184632328  0.4554985649426276   T   T   T
  0.3421341698419119  0.6578658301580883  0.4540363793218041   T   T   T
  0.8157358464720393  0.6578716615212957  0.4540365143843779   T   T   T
  0.1691912323794160  0.3345973966938865  0.5099372741098379   T   T   T
  0.6654050485001610  0.3345949514998391  0.5099370119604680   T   T   T
  0.1666665406197294  0.8333334593802705  0.5090160172667141   T   T   T
  0.6654026033061134  0.8308087676205839  0.5099372741098379   T   T   T
  0.0013502315154032  0.9986497684845972  0.5653468393030702   T   T   T
  0.4972982611963325  0.9986488851225885  0.5653468933667112   T   T   T
  0.0013511148774115  0.5027017388036674  0.5653468933667112   T   T   T
  0.5000007384081583  0.4999992615918419  0.5657450548283913   T   T   T
  0.3330300881123824  0.1660589884954352  0.6205881255248782   T   T   T
  0.8333337622315875  0.1666662377684122  0.6203198300668861   T   T   T
  0.3330305743551099  0.6669694256448900  0.6205879718618289   T   T   T
  0.8339410115045647  0.6669699118876177  0.6205881255248782   T   T   T
  0.1660106007961739  0.3330052095720781  0.6770211404291305   T   T   T
  0.6669945262372383  0.3330054737627620  0.6770211441871220   T   T   T
  0.1666668839572009  0.8333331160427992  0.6771280558206193   T   T   T
  0.6669947904279221  0.8339893992038262  0.6770211404291305   T   T   T
  0.9999611621272374  0.0000388378727623  0.7299895583009932   T   T   T
  0.5000791380110708  0.0000392816927162  0.7299895240021600   T   T   T
  0.9999607183072835  0.4999208619889289  0.7299895240021600   T   T   T
  0.5000002599600198  0.4999997400399797  0.7299007376927839   T   T   T
 
  0.00000000E+00  0.00000000E+00  0.00000000E+00
  0.00000000E+00  0.00000000E+00  0.00000000E+00
  0.00000000E+00  0.00000000E+00  0.00000000E+00
  0.00000000E+00  0.00000000E+00  0.00000000E+00
  0.00000000E+00  0.00000000E+00  0.00000000E+00
  0.00000000E+00  0.00000000E+00  0.00000000E+00
  0.00000000E+00  0.00000000E+00  0.00000000E+00
  0.00000000E+00  0.00000000E+00  0.00000000E+00
  0.00000000E+00  0.00000000E+00  0.00000000E+00
  0.00000000E+00  0.00000000E+00  0.00000000E+00
  0.00000000E+00  0.00000000E+00  0.00000000E+00
  0.00000000E+00  0.00000000E+00  0.00000000E+00
  0.00000000E+00  0.00000000E+00  0.00000000E+00
  0.00000000E+00  0.00000000E+00  0.00000000E+00
  0.00000000E+00  0.00000000E+00  0.00000000E+00
  0.00000000E+00  0.00000000E+00  0.00000000E+00
  0.00000000E+00  0.00000000E+00  0.00000000E+00
  0.00000000E+00  0.00000000E+00  0.00000000E+00
  0.00000000E+00  0.00000000E+00  0.00000000E+00
  0.00000000E+00  0.00000000E+00  0.00000000E+00
  0.00000000E+00  0.00000000E+00  0.00000000E+00
  0.00000000E+00  0.00000000E+00  0.00000000E+00
  0.00000000E+00  0.00000000E+00  0.00000000E+00
  0.00000000E+00  0.00000000E+00  0.00000000E+00
  0.00000000E+00  0.00000000E+00  0.00000000E+00
  0.00000000E+00  0.00000000E+00  0.00000000E+00
  0.00000000E+00  0.00000000E+00  0.00000000E+00
  0.00000000E+00  0.00000000E+00  0.00000000E+00
  0.00000000E+00  0.00000000E+00  0.00000000E+00
  0.00000000E+00  0.00000000E+00  0.00000000E+00
  0.00000000E+00  0.00000000E+00  0.00000000E+00
  0.00000000E+00  0.00000000E+00  0.00000000E+00
  0.00000000E+00  0.00000000E+00  0.00000000E+00
  0.00000000E+00  0.00000000E+00  0.00000000E+00
  0.00000000E+00  0.00000000E+00  0.00000000E+00
  0.00000000E+00  0.00000000E+00  0.00000000E+00
  0.00000000E+00  0.00000000E+00  0.00000000E+00
  0.00000000E+00  0.00000000E+00  0.00000000E+00
  0.00000000E+00  0.00000000E+00  0.00000000E+00
  0.00000000E+00  0.00000000E+00  0.00000000E+00
  0.00000000E+00  0.00000000E+00  0.00000000E+00
  0.00000000E+00  0.00000000E+00  0.00000000E+00
  0.00000000E+00  0.00000000E+00  0.00000000E+00
  0.00000000E+00  0.00000000E+00  0.00000000E+00
  0.00000000E+00  0.00000000E+00  0.00000000E+00
  0.00000000E+00  0.00000000E+00  0.00000000E+00
  0.00000000E+00  0.00000000E+00  0.00000000E+00
  0.00000000E+00  0.00000000E+00  0.00000000E+00
  0.00000000E+00  0.00000000E+00  0.00000000E+00
  0.00000000E+00  0.00000000E+00  0.00000000E+00
  0.00000000E+00  0.00000000E+00  0.00000000E+00
  0.00000000E+00  0.00000000E+00  0.00000000E+00
