Co	111																															
	2.63665				2.668290866				2.63665																							
	2.024000809	0	0		5.336581733	0	0		5.2733	0	0		2	0	0		2.0000000000000000	0.0000000000000000	0.0000000000000000													
	-1.012000404	1.752836118	0		-2.668290866	4.62161535	0		-2.63665	4.566811762	0		-1	1.732050808	0		-1.0000000000000000	1.7320508075688800	0.0000000000000000													
	0	0	13.18848436		0	0	34.77341729		0	0	34.44505136		0	0	13.03209396		0.0000000000000000	0.0000000000000000	13.0639452948436000													
	Pt	Co																														
	25	27																														
		Relaxed				Orig				Relaxed Cartesian					52	13		Original Cartesian 			inter atomic distances Cartesian 				inter atomic distances						Shifts cartesian 	
																																
0.979965168	0	0	-0.020034832		0	0	0		0	0	-0.261095817		0	0	-0.264229072	1	0	0	0									1	Pt			
0.979813635	0.500010603	2.12053E-05	-0.020186365		0.5	0	0		1	3.67286E-05	-0.26307061		1.012000404	3.71694E-05	-0.266227563	0	1	0	0									2	Pt			
0.979813635	-2.12053E-05	0.499989397	-0.020186365		0	0.5	0		-0.500031808	0.866007039	-0.26307061		-0.506032392	0.876399474	-0.266227563	0	-0.500031808	0.866025404	0									3	Pt			
0.979813635	0.500010603	0.499989397	-0.020186365		0.5	0.5	0		0.500031808	0.866007039	-0.26307061		0.506032392	0.876399474	-0.266227563	0	0.500031808	0.866025404	0									4	Pt			
	0.333406513	0.166703257	0.049750143		0.333333333	0.166666667	0.0625	0.814505873	0.500109768	0.288738511	0.648348539		0.506111288	0.292203489	0.656128984	2	0.500109768	0.288675135	0.816496581		0.500109768	0.288675135	0.816496581		0.506111288	0.292203489	0.920358056	5	Pt	0.006001519	0.003528354	0.103861475
	0.833296744	0.166703257	0.049750143		0.833333333	0.166666667	0.0625		1.49989023	0.288738511	0.648348539		1.51788952	0.292203489	0.656128984	0	1.49989023	0.288675135	0.816496581		0.49989023	0.288675135	0.816496581		0.505889115	0.29216632	0.922356547	6	Pt	0.005998885	0.003491185	0.105859967
	0.333333333	0.666666667	0.049777882		0.333333333	0.666666667	0.0625		-1E-09	1.154700539	0.648710034		-1.012E-09	1.168557412	0.656494817	0	-1E-09	1.154700539	0.816496581		0.500031807	0.288675135	0.816496581		0.506032391	0.292157938	0.922722381	7	Pt	0.006000584	0.003482803	0.1062258
	0.833296744	0.666593487	0.049750143		0.833333333	0.666666667	0.0625		1	1.154573788	0.648348539		1.012000404	1.168429141	0.656128984	0	1	1.154700539	0.816496581		0.499968192	0.288675135	0.816496581		0.505968012	0.292029666	0.922356547	8	Pt	0.00599982	0.003354531	0.105859967
	0.166696455	0.333392908	0.119721985		0.166666667	0.333333333	0.125		1.00001E-09	0.577453456	1.560228158		1.01201E-09	0.584383131	1.578951527	3	1E-09	0.577350269	1.632993162		-0.500109767	0.288675133	0.816496581		-0.506111287	0.292179642	0.922822543	9	Pt	-0.006001519	0.003504508	0.106325962
	0.666666667	0.333333333	0.119551699		0.666666667	0.333333333	0.125		1.000000001	0.577350269	1.558008972		1.012000405	0.584278705	1.576705709	0	1.000000001	0.577350269	1.632993162		-0.499890229	0.288675133	0.816496581		-0.505889114	0.292075216	0.920576725	10	Pt	-0.005998885	0.003400082	0.104080144
	0.166696455	0.833303546	0.119721985		0.166666667	0.833333333	0.125		-0.499910636	1.443324079	1.560228158		-0.505909766	1.460644552	1.578951527	0	-0.499910636	1.443375673	1.632993162		-0.499910635	0.288675134	0.816496581		-0.505909765	0.292087139	0.92245671	11	Pt	-0.00599913	0.003412005	0.105960129
	0.666607092	0.833303546	0.119721985		0.666666667	0.833333333	0.125		0.499910638	1.443324079	1.560228158		0.505909767	1.460644552	1.578951527	0	0.499910638	1.443375673	1.632993162		-0.500089362	0.288675134	0.816496581		-0.506090637	0.292215411	0.922822543	12	Pt	-0.006001275	0.003540277	0.106325962
	0	0	0.189501		0	0	0.1875		0	0	2.469594842		0	0	2.499230979	4	0	0	2.449489743		-1E-09	-0.577350269	0.816496581		-1.01201E-09	-0.584383131	0.920279452	13	Pt	-1.20022E-11	-0.007032863	0.103782871
	0.50003501	7.00199E-05	0.189749251		0.5	0	0.1875		1	0.000121278	2.472830065		1.012000404	0.000122733	2.502505026	0	1	0	2.449489743		-1E-09	-0.577350269	0.816496581		-1.01201E-09	-0.584155972	0.925799317	14	Pt	-1.20018E-11	-0.006805703	0.109302736
	-7.00199E-05	0.49996499	0.189749251		0	0.5	0.1875		-0.50010503	0.865964765	2.472830065		-0.506106493	0.876356692	2.502505026	0	-0.50010503	0.866025404	2.449489743		-0.000194394	-0.577350269	0.816496581		-0.000196726	-0.58428786	0.923553499	15	Pt	-2.3328E-06	-0.006937591	0.107056918
	0.50003501	0.49996499	0.189749251		0.5	0.5	0.1875		0.50010503	0.865964765	2.472830065		0.506106493	0.876356692	2.502505026	0	0.50010503	0.866025404	2.449489743		0.000194392	-0.577350269	0.816496581		0.000196725	-0.58428786	0.923553499	16	Pt	2.33279E-06	-0.006937591	0.107056918
	0.333486494	0.166743247	0.259926636		0.333333333	0.166666667	0.25		0.50022974	0.288807776	3.387388338		0.506232699	0.292273586	3.428038368	5	0.50022974	0.288675135	3.265986324		0.50022974	0.288675135	0.816496581		0.506232699	0.292273586	0.92880739	17	Pt	0.006002959	0.003598451	0.112310809
	0.833256753	0.166743247	0.259926636		0.833333333	0.166666667	0.25		1.499770258	0.288807776	3.387388338		1.517768108	0.292273586	3.428038368	0	1.499770258	0.288675135	3.265986324		0.499770258	0.288675135	0.816496581		0.505767703	0.292150853	0.925533342	18	Pt	0.005997445	0.003475718	0.109036761
	0.333333333	0.666666667	0.260202513		0.333333333	0.666666667	0.25		-1E-09	1.154700539	3.390983597		-1.012E-09	1.168557412	3.431676772	0	-1E-09	1.154700539	3.265986324		0.500105029	0.288675135	0.816496581		0.506106491	0.29220072	0.929171745	19	Pt	0.006001463	0.003525585	0.112675164
	0.833256753	0.666513506	0.259926636		0.833333333	0.666666667	0.25		0.999999999	1.154435257	3.387388338		1.012000403	1.168288947	3.428038368	0	0.999999999	1.154700539	3.265986324		0.499894969	0.288675135	0.816496581		0.505893911	0.291932255	0.925533342	20	Pt	0.005998942	0.00325712	0.109036761
	0.167513826	0.335027652	0.330401363		0.166666667	0.333333333	0.3125		1E-09	0.580284915	4.305821612		1.012E-09	0.587248569	4.357493213	6	1E-09	0.577350269	4.082482905		-0.500229739	0.288675133	0.816496581		-0.506232698	0.294974982	0.929454844	21	Pt	-0.006002959	0.006299849	0.112958263
	0.666666667	0.333333333	0.331597883		0.666666667	0.333333333	0.3125		1.000000001	0.577350269	4.321414771		1.012000405	0.584278705	4.373273496	0	1.000000001	0.577350269	4.082482905		-0.499770257	0.288675133	0.816496581		-0.505767702	0.292005119	0.945235127	22	Pt	-0.005997445	0.003329986	0.128738546
	0.167513826	0.832486174	0.330401363		0.166666667	0.833333333	0.3125		-0.497458521	1.441908349	4.305821612		-0.503428224	1.459211833	4.357493213	0	-0.497458521	1.443375672	4.082482905		-0.49745852	0.288675133	0.816496581		-0.503428223	0.29065442	0.925816441	23	Pt	-0.005969703	0.001979287	0.10931986
	0.664972348	0.832486174	0.330401363		0.666666667	0.833333333	0.3125		0.497458523	1.441908349	4.305821612		0.503428226	1.459211833	4.357493213	0	0.497458523	1.443375672	4.082482905		-0.502541476	0.288675133	0.816496581		-0.508572177	0.290922886	0.929454844	24	Pt	-0.006030701	0.002247752	0.112958263
	0	0	0.396346523		0	0	0.375		0	0	5.165225132		0	0	5.227209922	3	0	0	4.898979486		-1E-09	-0.577350269	0.816496581		-1.012E-09	-0.587248569	0.86971671	25	Mix Pt	-1.20022E-11	-0.0098983	0.053220129
	0.500904667	0.001809334	0.394444011		0.5	0	0.375		1	0.003133859	5.14043141		1.012000404	0.003171467	5.202118666	0	1	0	4.898979486		-1.00001E-09	-0.577350269	0.816496581		-1.01201E-09	-0.581107239	0.82884517	26	Mix Co	-1.20021E-11	-0.00375697	0.012348589
	-0.001809334	0.499095333	0.394444011		0	0.5	0.375		-0.502714002	0.864458474	5.14043141		-0.508746773	0.874832326	5.202118666	0	-0.502714002	0.866025404	4.898979486		-0.005255481	-0.577350269	0.816496581		-0.005318549	-0.584379507	0.844625453	27	Mix Co	-6.30679E-05	-0.007029238	0.028128872
	0.500904667	0.499095333	0.394444011		0.5	0.5	0.375		0.502714002	0.864458474	5.14043141		0.508746773	0.874832326	5.202118666	0	0.502714002	0.866025404	4.898979486		0.005255479	-0.577350269	0.816496581		0.005318547	-0.584379507	0.844625453	28	Mix Co	6.30679E-05	-0.007029238	0.028128872
	0.353156913	0.176578457	0.452160599		0.333333333	0.166666667	0.4375		0.529735369	0.305842859	5.892599406		0.536092408	0.309513097	5.963312982	3	0.529735369	0.288675135	5.715476066		0.529735369	0.288675135	0.816496581		0.536092408	0.309513097	0.73610306	29	Co	0.006357039	0.020837962	-0.080393521
	0.823421543	0.176578457	0.452160599		0.833333333	0.166666667	0.4375		1.470264629	0.305842859	5.892599406		1.487908399	0.309513097	5.963312982	0	1.470264629	0.288675135	5.715476066		0.470264629	0.288675135	0.816496581		0.475907995	0.306341631	0.761194317	30	Co	0.005643366	0.017666495	-0.055302264
	0.333333333	0.666666667	0.450754231		0.333333333	0.666666667	0.4375		-1E-09	1.154700539	5.874271494		-1.012E-09	1.168557412	5.944765128	0	-1E-09	1.154700539	5.715476066		0.502714001	0.288675135	0.816496581		0.508746772	0.293725087	0.742646462	31	Co	0.006032771	0.005049952	-0.073850119
	0.823421543	0.646843087	0.452160599		0.833333333	0.666666667	0.4375		0.999999999	1.120365091	5.892599406		1.012000403	1.133809925	5.963312982	0	0.999999999	1.154700539	5.715476066		0.497285997	0.288675135	0.816496581		0.503253631	0.2589776	0.761194317	32	Co	0.005967633	-0.029697536	-0.055302264
	0.167835696	0.335671391	0.507572421		0.166666667	0.333333333	0.5		1.00001E-09	0.581399904	6.614731478		1.01201E-09	0.588376938	6.694110931	3	1E-09	0.577350269	6.531972647		-0.529735368	0.288675133	0.816496581		-0.536092407	0.278863841	0.730797949	33	Co	-0.006357039	-0.009811292	-0.085698632
	0.666666667	0.333333333	0.509218675		0.666666667	0.333333333	0.5		1.000000001	0.577350269	6.636185625		1.012000405	0.584278705	6.715822536	0	1.000000001	0.577350269	6.531972647		-0.470264628	0.288675133	0.816496581		-0.475907994	0.274765608	0.752509554	34	Co	-0.005643366	-0.013909525	-0.063987027
	0.167835696	0.832164304	0.507572421		0.166666667	0.833333333	0.5		-0.496492912	1.441350855	6.614731478		-0.502451027	1.458647648	6.694110931	0	-0.496492912	1.443375672	6.531972647		-0.496492911	0.288675133	0.816496581		-0.502451026	0.290090235	0.749345803	35	Co	-0.005958116	0.001415102	-0.067150778
	0.664328609	0.832164304	0.507572421		0.666666667	0.833333333	0.5		0.496492914	1.441350855	6.614731478		0.502451029	1.458647648	6.694110931	0	0.496492914	1.443375672	6.531972647		-0.503507085	0.288675133	0.816496581		-0.509549374	0.324837723	0.730797949	36	Co	-0.006042289	0.036162589	-0.085698632
	0	0	0.563719455		0	0	0.5625		0	0	7.34644491		0	0	7.43460522	3	0	0	7.348469228		-1E-09	-0.577350269	0.816496581		-1.01201E-09	-0.588376938	0.740494289	37	Co	-1.20021E-11	-0.01102667	-0.076002292
	0.498158947	-0.003682107	0.564124459		0.5	0	0.5625		1	-0.006377596	7.351722956		1.012000404	-0.006454129	7.439946605	0	1	0	7.348469228		-1.00001E-09	-0.577350269	0.816496581		-1.01201E-09	-0.590732835	0.724124068	38	Co	-1.2002E-11	-0.013382566	-0.092372512
	0.003682107	0.501841053	0.564124459		0	0.5	0.5625		-0.49447684	0.869214202	7.351722956		-0.500410762	0.879645124	7.439946605	0	-0.49447684	0.866025404	7.348469228		0.002016072	-0.577350269	0.816496581		0.002040265	-0.579002524	0.745835673	39	Co	2.41937E-05	-0.001652256	-0.070660908
	0.498158947	0.501841053	0.564124459		0.5	0.5	0.5625		0.49447684	0.869214202	7.351722956		0.500410762	0.879645124	7.439946605	0	0.49447684	0.866025404	7.348469228		-0.002016074	-0.577350269	0.816496581		-0.002040267	-0.579002524	0.745835673	40	Co	-2.41937E-05	-0.001652256	-0.070660908
	0.332789943	0.166394972	0.619619986		0.333333333	0.166666667	0.625		0.499184914	0.288204545	8.074945882		0.505175335	0.291663117	8.171848498	3	0.499184914	0.288675135	8.164965809		0.499184914	0.288675135	0.816496581		0.505175335	0.291663117	0.737243277	41	Co	0.005990421	0.002987981	-0.079253304
	0.833605028	0.166394972	0.619619986		0.833333333	0.166666667	0.625		1.500815084	0.288204545	8.074945882		1.518825472	0.291663117	8.171848498	0	1.500815084	0.288675135	8.164965809		0.500815084	0.288675135	0.816496581		0.506825068	0.298117246	0.731901893	42	Co	0.006009984	0.009442111	-0.084594688
	0.333333333	0.666666667	0.62001684		0.333333333	0.666666667	0.625		-1E-09	1.154700539	8.08011772		-1.012E-09	1.168557412	8.1770824	0	-1E-09	1.154700539	8.164965809		0.494476839	0.288675135	0.816496581		0.500410761	0.288912289	0.737135796	43	Co	0.005933922	0.000237154	-0.079360785
	0.833605028	0.667210057	0.619619986		0.833333333	0.666666667	0.625		0.999999999	1.155641718	8.074945882		1.012000403	1.169509886	8.171848498	0	0.999999999	1.154700539	8.164965809		0.505523159	0.288675135	0.816496581		0.511589641	0.289864763	0.731901893	44	Co	0.006066482	0.001189628	-0.084594688
	0.166228085	0.332456169	0.676737102		0.166666667	0.333333333	0.6875		1.00001E-09	0.575830976	8.819301503		1.01201E-09	0.582741181	8.925136688	3	1E-09	0.577350269	8.98146239		-0.499184913	0.288675133	0.816496581		-0.505175334	0.291078064	0.75328819	45	Co	-0.005990421	0.002402931	-0.063208391
	0.666666667	0.333333333	0.676614747		0.666666667	0.333333333	0.6875		1.000000001	0.577350269	8.817706959		1.012000405	0.584278705	8.923523008	0	1.000000001	0.577350269	8.98146239		-0.500815083	0.288675133	0.816496581		-0.506825067	0.292615589	0.75167451	46	Co	-0.006009984	0.003940455	-0.064822071
	0.166228085	0.833771915	0.676737102		0.166666667	0.833333333	0.6875		-0.501315745	1.444135319	8.819301503		-0.507331737	1.461465527	8.925136688	0	-0.501315745	1.443375672	8.98146239		-0.501315744	0.288675133	0.816496581		-0.507331736	0.292908114	0.748054287	47	Co	-0.006015992	0.004232981	-0.068442293
	0.667543831	0.833771915	0.676737102		0.666666667	0.833333333	0.6875		0.501315747	1.444135319	8.819301503		0.507331739	1.461465527	8.925136688	0	0.501315747	1.443375672	8.98146239		-0.498684252	0.288675133	0.816496581		-0.504668665	0.29195564	0.75328819	48	Co	-0.005984413	0.003280507	-0.063208391
	0	0	0.730255881		0	0	0.75		0	0	9.516763258		0	0	9.630968265	3	0	0	9.797958971		-1E-09	-0.577350269	0.816496581		-1.01201E-09	-0.582741181	0.705831578	49	Co	-1.20021E-11	-0.005390912	-0.110665003
	0.499971504	-5.69924E-05	0.730137578		0.5	0	0.75		1	-9.87137E-05	9.515221527		1.012000404	-9.98983E-05	9.629408033	0	1	0	9.797958971		-1E-09	-0.577350269	0.816496581		-1.01201E-09	-0.584378604	0.705885025	50	Co	-1.2002E-11	-0.007028335	-0.110611556
	5.69924E-05	0.500028496	0.730137578		0	0.5	0.75		-0.499914511	0.866074761	9.515221527		-0.505913688	0.876468008	9.629408033	0	-0.499914511	0.866025404	9.797958971		0.001401234	-0.577350269	0.816496581		0.001418049	-0.584997519	0.704271345	51	Co	1.68154E-05	-0.00764725	-0.112225235
	0.499971504	0.500028496	0.730137578		0.5	0.5	0.75		0.499914511	0.866074761	9.515221527		0.505913688	0.876468008	9.629408033	0	0.499914511	0.866025404	9.797958971		-0.001401236	-0.577350269	0.816496581		-0.001418051	-0.584997519	0.704271345	52	Co	-1.68154E-05	-0.00764725	-0.112225235
																																
																																
																																
																																
																																
																																
																																
																																
																																
																																
																																
																																
																																
																																
																																
																																
																																
																																
																																
																																
																																
																																
																																
																																
																																
																																
																																
																																
																																
																																
																																
																																
																																
																																
																																
																																
																																
																																
																																
																																
																																
																																
																																
																																
																																
																																
																																
																																
																																
																																
																																
																																
																																
