Co 111                                  
   2.63665000000000     
     2.0271367843846240    0.0008261729135599   -0.0014806940350433
    -1.0128529089592186    1.7559647401716463    0.0014816301761252
    -0.0096859813714527    0.0055986355902700   13.2224056711086178
   Pt   Co
    26    26
Selective dynamics
Direct
  0.9999988276261820 -0.0000002688326649  0.9798194829125969   T   T   T
  0.4999755951539222  0.0000214380369593  0.9797149332726685   T   T   T
  0.9999770172551248  0.5000227941384323  0.9797149318749497   T   T   T
  0.4999984035806292  0.4999999191126251  0.9798172495374617   T   T   T
  0.3333676102267746  0.1666291695513912  0.0493700075849169   T   T   T
  0.8333207693044336  0.1666778394610282  0.0494066898325682   T   T   T
  0.3333209497211957  0.6666773869991717  0.0494057469728154   T   T   T
  0.8333693463810595  0.6666308016003220  0.0493700245653039   T   T   T
  0.1665341156875239  0.3334603001170261  0.1190979682905069   T   T   T
  0.6665746864951527  0.3334239168721577  0.1189300865535955   T   T   T
  0.1665731210797163  0.8334258427906107  0.1189296264469769   T   T   T
  0.6665384348985784  0.8334647714415294  0.1190979928591978   T   T   T
  0.9997975130632616  0.0002019933117073  0.1886239644397011   T   T   T
  0.4997323758658808  0.0002709845768721  0.1888214167272546   T   T   T
  0.9997283522433306  0.5002666724228445  0.1888214274800540   T   T   T
  0.4998008877054016  0.5001978665589101  0.1886233340603200   T   T   T
  0.3336812275678313  0.1663146801909030  0.2585638568560695   T   T   T
  0.8334603478681560  0.1665395261062251  0.2588394095453335   T   T   T
  0.3334619973250014  0.6665391374226435  0.2588449747117816   T   T   T
  0.8336855918571832  0.6663194209901913  0.2585636095349222   T   T   T
  0.1672945721978119  0.3326499875967872  0.3283687756214578   T   T   T
  0.6688167409448869  0.3311731471979474  0.3295314886559547   T   T   T
  0.1688651621276722  0.8311502697618125  0.3295643388722951   T   T   T
  0.6673479707316251  0.8327128066669868  0.3283685441550970   T   T   T
 -0.0003036816942346  1.0003118437063041  0.3960175829362543   T   T   T
  0.4993920375909184  0.5006101212047496  0.3959480583894713   T   T   T
 -0.0007123437903803  0.4998955303358120  0.3942837848150963   T   T   T
  0.5001077835631058  1.0007164523189220  0.3942839207608353   T   T   T
  0.3436506796414243  0.1577826811335665  0.4539023308228730   T   T   T
  0.8234906072368293  0.1765170743879295  0.4525839708047928   T   T   T
  0.3233423738569158  0.6766517044602890  0.4525453679485112   T   T   T
  0.8422237312078455  0.6563488437301831  0.4539017664981032   T   T   T
  0.1645999801852680  0.3357151025353264  0.5084097176155863   T   T   T
  0.6667088833351724  0.3332914137600138  0.5097579346761534   T   T   T
  0.1664985571914537  0.8335076022145129  0.5096727592648249   T   T   T
  0.6642824931093788  0.8353991274310317  0.5084098504893242   T   T   T
 -0.0017018291138620  1.0016994474174590  0.5647742638924601   T   T   T
  0.5013022457970894  0.9981261245095966  0.5651567181526628   T   T   T
  0.0018743541168890  0.4986987035651304  0.5651568594053027   T   T   T
  0.4982655307451918  0.5017340098799226  0.5648075873422203   T   T   T
  0.3330926293992528  0.1667214885020673  0.6202327263383001   T   T   T
  0.8335511302659295  0.1664489873296633  0.6205455832498377   T   T   T
  0.3335473512634094  0.6664524374711519  0.6205911609189450   T   T   T
  0.8332767037745931  0.6669052866269921  0.6202327205078642   T   T   T
  0.1670274711004744  0.3327483845619212  0.6772503014000048   T   T   T
  0.6663432059874883  0.3336546730511155  0.6771338244963804   T   T   T
  0.1662786650784611  0.8337195043962963  0.6771539712507432   T   T   T
  0.6672504434416331  0.8329712869324353  0.6772502719914385   T   T   T
  1.0003361543016225 -0.0003378811782808  0.7305134288577515   T   T   T
  0.5003784816944656 -0.0003352539372424  0.7303922441509781   T   T   T
  1.0003326396291345  0.4996189761828153  0.7303922582575600   T   T   T
  0.5003421048421719  0.4996559240438960  0.7304891534019382   T   T   T
 
  0.00000000E+00  0.00000000E+00  0.00000000E+00
  0.00000000E+00  0.00000000E+00  0.00000000E+00
  0.00000000E+00  0.00000000E+00  0.00000000E+00
  0.00000000E+00  0.00000000E+00  0.00000000E+00
  0.00000000E+00  0.00000000E+00  0.00000000E+00
  0.00000000E+00  0.00000000E+00  0.00000000E+00
  0.00000000E+00  0.00000000E+00  0.00000000E+00
  0.00000000E+00  0.00000000E+00  0.00000000E+00
  0.00000000E+00  0.00000000E+00  0.00000000E+00
  0.00000000E+00  0.00000000E+00  0.00000000E+00
  0.00000000E+00  0.00000000E+00  0.00000000E+00
  0.00000000E+00  0.00000000E+00  0.00000000E+00
  0.00000000E+00  0.00000000E+00  0.00000000E+00
  0.00000000E+00  0.00000000E+00  0.00000000E+00
  0.00000000E+00  0.00000000E+00  0.00000000E+00
  0.00000000E+00  0.00000000E+00  0.00000000E+00
  0.00000000E+00  0.00000000E+00  0.00000000E+00
  0.00000000E+00  0.00000000E+00  0.00000000E+00
  0.00000000E+00  0.00000000E+00  0.00000000E+00
  0.00000000E+00  0.00000000E+00  0.00000000E+00
  0.00000000E+00  0.00000000E+00  0.00000000E+00
  0.00000000E+00  0.00000000E+00  0.00000000E+00
  0.00000000E+00  0.00000000E+00  0.00000000E+00
  0.00000000E+00  0.00000000E+00  0.00000000E+00
  0.00000000E+00  0.00000000E+00  0.00000000E+00
  0.00000000E+00  0.00000000E+00  0.00000000E+00
  0.00000000E+00  0.00000000E+00  0.00000000E+00
  0.00000000E+00  0.00000000E+00  0.00000000E+00
  0.00000000E+00  0.00000000E+00  0.00000000E+00
  0.00000000E+00  0.00000000E+00  0.00000000E+00
  0.00000000E+00  0.00000000E+00  0.00000000E+00
  0.00000000E+00  0.00000000E+00  0.00000000E+00
  0.00000000E+00  0.00000000E+00  0.00000000E+00
  0.00000000E+00  0.00000000E+00  0.00000000E+00
  0.00000000E+00  0.00000000E+00  0.00000000E+00
  0.00000000E+00  0.00000000E+00  0.00000000E+00
  0.00000000E+00  0.00000000E+00  0.00000000E+00
  0.00000000E+00  0.00000000E+00  0.00000000E+00
  0.00000000E+00  0.00000000E+00  0.00000000E+00
  0.00000000E+00  0.00000000E+00  0.00000000E+00
  0.00000000E+00  0.00000000E+00  0.00000000E+00
  0.00000000E+00  0.00000000E+00  0.00000000E+00
  0.00000000E+00  0.00000000E+00  0.00000000E+00
  0.00000000E+00  0.00000000E+00  0.00000000E+00
  0.00000000E+00  0.00000000E+00  0.00000000E+00
  0.00000000E+00  0.00000000E+00  0.00000000E+00
  0.00000000E+00  0.00000000E+00  0.00000000E+00
  0.00000000E+00  0.00000000E+00  0.00000000E+00
  0.00000000E+00  0.00000000E+00  0.00000000E+00
  0.00000000E+00  0.00000000E+00  0.00000000E+00
  0.00000000E+00  0.00000000E+00  0.00000000E+00
  0.00000000E+00  0.00000000E+00  0.00000000E+00
